Pt  C  O  H                             
   1.00000000000000     
     5.6144278426211880    0.0000000000000000    0.0000000000000000
     0.0000000000000000    5.6144278426211880    0.0000000000000000
     0.0000000000000000    0.0000000000000000   20.9549999999999983
   Pt   C    O    H 
    16     1     1     1
Selective dynamics
Direct
  0.2500000000000000  0.2500000000000000  0.3579098067287063   F   F   F
  0.7500000000000000  0.2500000000000000  0.3579098067287063   F   F   F
  0.2500000000000000  0.7500000000000000  0.3579098067287063   F   F   F
  0.7500000000000000  0.7500000000000000  0.3579098067287063   F   F   F
  0.0000000000000000  0.0000000000000000  0.4526366022429045   F   F   F
  0.5000000000000000  0.0000000000000000  0.4526366022429045   F   F   F
  0.0000000000000000  0.5000000000000000  0.4526366022429045   F   F   F
  0.5000000000000000  0.5000000000000000  0.4526366022429045   F   F   F
  0.2509232790124814  0.2524972466786444  0.5452998202410142   T   T   T
  0.7508310795071770  0.2548129149457588  0.5462163298824736   T   T   T
  0.2508639398403023  0.7475727973733817  0.5452778754156709   T   T   T
  0.7507810559252246  0.7449933118088832  0.5462411187244507   T   T   T
  0.0024942836431542 -0.0000951141062208  0.6354358206295957   T   T   T
  0.4998672919700754 -0.0000159968722104  0.6354252512332212   T   T   T
  0.9915415387767422  0.4999942202452791  0.6440663086843262   T   T   T
  0.5111727511373227  0.5000290863235299  0.6445760887741974   T   T   T
  0.2511320473915580  0.4999660082273610  0.7040442342178606   T   T   T
  0.2529812749952663  0.4997575407114214  0.7666945085651927   T   T   T
  0.0882822675452949  0.4997920288724305  0.7828617002529153   T   T   T
 
  0.00000000E+00  0.00000000E+00  0.00000000E+00
  0.00000000E+00  0.00000000E+00  0.00000000E+00
  0.00000000E+00  0.00000000E+00  0.00000000E+00
  0.00000000E+00  0.00000000E+00  0.00000000E+00
  0.00000000E+00  0.00000000E+00  0.00000000E+00
  0.00000000E+00  0.00000000E+00  0.00000000E+00
  0.00000000E+00  0.00000000E+00  0.00000000E+00
  0.00000000E+00  0.00000000E+00  0.00000000E+00
  0.00000000E+00  0.00000000E+00  0.00000000E+00
  0.00000000E+00  0.00000000E+00  0.00000000E+00
  0.00000000E+00  0.00000000E+00  0.00000000E+00
  0.00000000E+00  0.00000000E+00  0.00000000E+00
  0.00000000E+00  0.00000000E+00  0.00000000E+00
  0.00000000E+00  0.00000000E+00  0.00000000E+00
  0.00000000E+00  0.00000000E+00  0.00000000E+00
  0.00000000E+00  0.00000000E+00  0.00000000E+00
  0.00000000E+00  0.00000000E+00  0.00000000E+00
  0.00000000E+00  0.00000000E+00  0.00000000E+00
  0.00000000E+00  0.00000000E+00  0.00000000E+00
