Pt  C  O  H                             
   1.00000000000000     
     5.6144278426211880    0.0000000000000000    0.0000000000000000
     0.0000000000000000    5.6144278426211880    0.0000000000000000
     0.0000000000000000    0.0000000000000000   20.9549999999999983
   Pt   C    O    H 
    16     1     1     1
Selective dynamics
Direct
  0.2500000000000000  0.2500000000000000  0.3579098067287063   F   F   F
  0.7500000000000000  0.2500000000000000  0.3579098067287063   F   F   F
  0.2500000000000000  0.7500000000000000  0.3579098067287063   F   F   F
  0.7500000000000000  0.7500000000000000  0.3579098067287063   F   F   F
  0.0000000000000000  0.0000000000000000  0.4526366022429045   F   F   F
  0.5000000000000000  0.0000000000000000  0.4526366022429045   F   F   F
  0.0000000000000000  0.5000000000000000  0.4526366022429045   F   F   F
  0.5000000000000000  0.5000000000000000  0.4526366022429045   F   F   F
  0.2583474646216282  0.2499254917177187  0.5446972173294682   T   T   T
  0.7582646099749430  0.2501522168253026  0.5453808898612252   T   T   T
  0.2507938399574943  0.7499684563604525  0.5434373586427166   T   T   T
  0.7533884181794300  0.7499787598863917  0.5488614367399051   T   T   T
  0.0175005726204735 -0.0014503183650984  0.6419712929570454   T   T   T
  0.5184967246822277 -0.0108540705353352  0.6389226568720130   T   T   T
  0.0174417112267725  0.5019962914326734  0.6420280070141017   T   T   T
  0.5185959796424366  0.5111428833300857  0.6389616522853953   T   T   T
  0.1477923376880059  0.2502174652880377  0.7034036496982553   T   T   T
  0.3901236127705718  0.2501683819139312  0.7089263060835284   T   T   T
  0.0610782868519525  0.2503601939508364  0.7508591085271579   T   T   T
 
  0.00000000E+00  0.00000000E+00  0.00000000E+00
  0.00000000E+00  0.00000000E+00  0.00000000E+00
  0.00000000E+00  0.00000000E+00  0.00000000E+00
  0.00000000E+00  0.00000000E+00  0.00000000E+00
  0.00000000E+00  0.00000000E+00  0.00000000E+00
  0.00000000E+00  0.00000000E+00  0.00000000E+00
  0.00000000E+00  0.00000000E+00  0.00000000E+00
  0.00000000E+00  0.00000000E+00  0.00000000E+00
  0.00000000E+00  0.00000000E+00  0.00000000E+00
  0.00000000E+00  0.00000000E+00  0.00000000E+00
  0.00000000E+00  0.00000000E+00  0.00000000E+00
  0.00000000E+00  0.00000000E+00  0.00000000E+00
  0.00000000E+00  0.00000000E+00  0.00000000E+00
  0.00000000E+00  0.00000000E+00  0.00000000E+00
  0.00000000E+00  0.00000000E+00  0.00000000E+00
  0.00000000E+00  0.00000000E+00  0.00000000E+00
  0.00000000E+00  0.00000000E+00  0.00000000E+00
  0.00000000E+00  0.00000000E+00  0.00000000E+00
  0.00000000E+00  0.00000000E+00  0.00000000E+00
