Pt  C  O  H                             
   1.00000000000000     
     5.6144278426211880    0.0000000000000000    0.0000000000000000
     2.8072139213105936    4.8622371394246091    0.0000000000000000
     0.0000000000000000    0.0000000000000000   21.8762417060484466
   Pt   C    O    H 
    16     1     1     1
Selective dynamics
Direct
  0.0000000000000000  0.0000000000000000  0.3428376821200700   F   F   F
  0.5000000000000000  0.5000000000000000  0.3428376821200700   F   F   F
  0.5000000000000000  0.0000000000000000  0.3428376821200700   F   F   F
  0.0000000000000000  0.5000000000000000  0.3428376821200700   F   F   F
  0.6666666666666643  0.6666666666666643  0.4476125607066876   F   F   F
  0.1666666666666643  0.1666666666666643  0.4476125607066876   F   F   F
  0.1666666666666643  0.6666666666666643  0.4476125607066876   F   F   F
  0.6666666666666643  0.1666666666666643  0.4476125607066876   F   F   F
  0.3325953026658648  0.3345108055725736  0.5508866126389933   T   T   T
  0.8352103780684812  0.8318635494800488  0.5508383145546567   T   T   T
  0.8327182414239692  0.3327049593046049  0.5533434458225237   T   T   T
  0.3324707804816574  0.8318144100401699  0.5508857940357885   T   T   T
 -0.0019385890589965  0.0043437669492195  0.6602328410441312   T   T   T
  0.5106377052134036  0.4942497557697354  0.6608281175970638   T   T   T
  0.5002870697149908  0.9990116991018994  0.6523486999373262   T   T   T
 -0.0025734786271694  0.4956717102659938  0.6600435100936799   T   T   T
  0.1743224465434049  0.6597282145993861  0.7128765067978964   T   T   T
  0.1767869317874352  0.6584487406559715  0.7741891592616359   T   T   T
 -0.0112364324958923  0.7295572749419492  0.7895207716484771   T   T   T
 
  0.00000000E+00  0.00000000E+00  0.00000000E+00
  0.00000000E+00  0.00000000E+00  0.00000000E+00
  0.00000000E+00  0.00000000E+00  0.00000000E+00
  0.00000000E+00  0.00000000E+00  0.00000000E+00
  0.00000000E+00  0.00000000E+00  0.00000000E+00
  0.00000000E+00  0.00000000E+00  0.00000000E+00
  0.00000000E+00  0.00000000E+00  0.00000000E+00
  0.00000000E+00  0.00000000E+00  0.00000000E+00
  0.00000000E+00  0.00000000E+00  0.00000000E+00
  0.00000000E+00  0.00000000E+00  0.00000000E+00
  0.00000000E+00  0.00000000E+00  0.00000000E+00
  0.00000000E+00  0.00000000E+00  0.00000000E+00
  0.00000000E+00  0.00000000E+00  0.00000000E+00
  0.00000000E+00  0.00000000E+00  0.00000000E+00
  0.00000000E+00  0.00000000E+00  0.00000000E+00
  0.00000000E+00  0.00000000E+00  0.00000000E+00
  0.00000000E+00  0.00000000E+00  0.00000000E+00
  0.00000000E+00  0.00000000E+00  0.00000000E+00
  0.00000000E+00  0.00000000E+00  0.00000000E+00
