Pt  C  O  H                             
   1.00000000000000     
     5.6144278426211880    0.0000000000000000    0.0000000000000000
     0.0000000000000000    5.6144278426211880    0.0000000000000000
     0.0000000000000000    0.0000000000000000   20.9549999999999983
   Pt   C    O    H 
    16     1     1     2
Selective dynamics
Direct
  0.2500000000000000  0.2500000000000000  0.3579098067287063   F   F   F
  0.7500000000000000  0.2500000000000000  0.3579098067287063   F   F   F
  0.2500000000000000  0.7500000000000000  0.3579098067287063   F   F   F
  0.7500000000000000  0.7500000000000000  0.3579098067287063   F   F   F
  0.0000000000000000  0.0000000000000000  0.4526366022429045   F   F   F
  0.5000000000000000  0.0000000000000000  0.4526366022429045   F   F   F
  0.0000000000000000  0.5000000000000000  0.4526366022429045   F   F   F
  0.5000000000000000  0.5000000000000000  0.4526366022429045   F   F   F
  0.2540584474664482  0.2526355783671146  0.5454666802730898   T   T   T
  0.7481465984953044  0.2525167110448867  0.5455625461981366   T   T   T
  0.2540688402847160  0.7472977619285185  0.5454407182563077   T   T   T
  0.7481199648955403  0.7473800700669978  0.5455495706993078   T   T   T
  0.0011810765725890 -0.0000949815060710  0.6359055084324743   T   T   T
  0.5010656589802018 -0.0000778721202172  0.6354516770724553   T   T   T
  0.0029092179351421  0.4998614024767442  0.6346869059686632   T   T   T
  0.5030510142174619  0.4999255605172269  0.6478034208141783   T   T   T
  0.5017629617359948  0.5000694269955951  0.7370241605087919   T   T   T
  0.6946258676712279  0.5000725801726473  0.7744657515500427   T   T   T
  0.3327890875980664  0.4999898358736465  0.7639845578624344   T   T   T
  0.6486770512522033  0.4999817948292896  0.8196678154540905   T   T   T
 
  0.00000000E+00  0.00000000E+00  0.00000000E+00
  0.00000000E+00  0.00000000E+00  0.00000000E+00
  0.00000000E+00  0.00000000E+00  0.00000000E+00
  0.00000000E+00  0.00000000E+00  0.00000000E+00
  0.00000000E+00  0.00000000E+00  0.00000000E+00
  0.00000000E+00  0.00000000E+00  0.00000000E+00
  0.00000000E+00  0.00000000E+00  0.00000000E+00
  0.00000000E+00  0.00000000E+00  0.00000000E+00
  0.00000000E+00  0.00000000E+00  0.00000000E+00
  0.00000000E+00  0.00000000E+00  0.00000000E+00
  0.00000000E+00  0.00000000E+00  0.00000000E+00
  0.00000000E+00  0.00000000E+00  0.00000000E+00
  0.00000000E+00  0.00000000E+00  0.00000000E+00
  0.00000000E+00  0.00000000E+00  0.00000000E+00
  0.00000000E+00  0.00000000E+00  0.00000000E+00
  0.00000000E+00  0.00000000E+00  0.00000000E+00
  0.00000000E+00  0.00000000E+00  0.00000000E+00
  0.00000000E+00  0.00000000E+00  0.00000000E+00
  0.00000000E+00  0.00000000E+00  0.00000000E+00
  0.00000000E+00  0.00000000E+00  0.00000000E+00
