Pt  C  O  H                             
   1.00000000000000     
     5.6144278426211880    0.0000000000000000    0.0000000000000000
     2.8072139213105936    4.8622371394246091    0.0000000000000000
     0.0000000000000000    0.0000000000000000   21.8762417060484466
   Pt   C    O    H 
    16     1     1     1
Selective dynamics
Direct
  0.0000000000000000  0.0000000000000000  0.3428376821200700   F   F   F
  0.5000000000000000  0.5000000000000000  0.3428376821200700   F   F   F
  0.5000000000000000  0.0000000000000000  0.3428376821200700   F   F   F
  0.0000000000000000  0.5000000000000000  0.3428376821200700   F   F   F
  0.6666666666666643  0.6666666666666643  0.4476125607066876   F   F   F
  0.1666666666666643  0.1666666666666643  0.4476125607066876   F   F   F
  0.1666666666666643  0.6666666666666643  0.4476125607066876   F   F   F
  0.6666666666666643  0.1666666666666643  0.4476125607066876   F   F   F
  0.3375271356943664  0.3274069229227352  0.5502820572870586   T   T   T
  0.8377940415546474  0.8282847408108491  0.5538741592264560   T   T   T
  0.8423501287213069  0.3263813926569493  0.5503833378790400   T   T   T
  0.3375936942328610  0.8298134159487391  0.5504182521010914   T   T   T
  0.0198149729748756  0.9893309324664896  0.6600792430592168   T   T   T
  0.5130535305301184  0.4879326594066676  0.6508902832318729   T   T   T
  0.5447615328972475  0.9727059328797737  0.6573294889954153   T   T   T
  0.0192881235993918  0.4800890390740540  0.6601922406645880   T   T   T
  0.1056919359926605  0.1910662122835659  0.7296087130719728   T   T   T
  0.3597018275323011  0.0642084811933354  0.7468737344213305   T   T   T
  0.9496861044745382  0.2688361393206656  0.7665025219695516   T   T   T
 
  0.00000000E+00  0.00000000E+00  0.00000000E+00
  0.00000000E+00  0.00000000E+00  0.00000000E+00
  0.00000000E+00  0.00000000E+00  0.00000000E+00
  0.00000000E+00  0.00000000E+00  0.00000000E+00
  0.00000000E+00  0.00000000E+00  0.00000000E+00
  0.00000000E+00  0.00000000E+00  0.00000000E+00
  0.00000000E+00  0.00000000E+00  0.00000000E+00
  0.00000000E+00  0.00000000E+00  0.00000000E+00
  0.00000000E+00  0.00000000E+00  0.00000000E+00
  0.00000000E+00  0.00000000E+00  0.00000000E+00
  0.00000000E+00  0.00000000E+00  0.00000000E+00
  0.00000000E+00  0.00000000E+00  0.00000000E+00
  0.00000000E+00  0.00000000E+00  0.00000000E+00
  0.00000000E+00  0.00000000E+00  0.00000000E+00
  0.00000000E+00  0.00000000E+00  0.00000000E+00
  0.00000000E+00  0.00000000E+00  0.00000000E+00
  0.00000000E+00  0.00000000E+00  0.00000000E+00
  0.00000000E+00  0.00000000E+00  0.00000000E+00
  0.00000000E+00  0.00000000E+00  0.00000000E+00
