Pt  C  O  H                             
   1.00000000000000     
     5.6144278426211880    0.0000000000000000    0.0000000000000000
     2.8072139213105936    4.8622371394246091    0.0000000000000000
     0.0000000000000000    0.0000000000000000   21.8762417060484466
   Pt   C    O    H 
    16     1     1     2
Selective dynamics
Direct
  0.0000000000000000  0.0000000000000000  0.3428376821200700   F   F   F
  0.5000000000000000  0.5000000000000000  0.3428376821200700   F   F   F
  0.5000000000000000  0.0000000000000000  0.3428376821200700   F   F   F
  0.0000000000000000  0.5000000000000000  0.3428376821200700   F   F   F
  0.6666666666666643  0.6666666666666643  0.4476125607066876   F   F   F
  0.1666666666666643  0.1666666666666643  0.4476125607066876   F   F   F
  0.1666666666666643  0.6666666666666643  0.4476125607066876   F   F   F
  0.6666666666666643  0.1666666666666643  0.4476125607066876   F   F   F
  0.3309314839230780  0.3403418604268921  0.5515094475294909   T   T   T
  0.8391261002234670  0.8319020958878144  0.5522661254530500   T   T   T
  0.8366429148652800  0.3386205795262931  0.5503862332903200   T   T   T
  0.3364115834954667  0.8394997180782270  0.5500514971946974   T   T   T
  0.0043992922596903  0.0136624977275394  0.6535474551607351   T   T   T
  0.5050574604947400  0.5129883574253690  0.6525441432288447   T   T   T
  0.5042537335843981  0.0130117052811491  0.6539937211342339   T   T   T
  0.0051682450218766  0.5175227660357812  0.6632910079281126   T   T   T
 -0.0046918722251570  0.4775704705372582  0.7481266440338408   T   T   T
  0.1502329059130879  0.5157373762730645  0.7889417767470471   T   T   T
  0.8507986607320784  0.4219366065837094  0.7687670489217228   T   T   T
  0.1041747959102341  0.4859445892470754  0.8304452902751968   T   T   T
 
  0.00000000E+00  0.00000000E+00  0.00000000E+00
  0.00000000E+00  0.00000000E+00  0.00000000E+00
  0.00000000E+00  0.00000000E+00  0.00000000E+00
  0.00000000E+00  0.00000000E+00  0.00000000E+00
  0.00000000E+00  0.00000000E+00  0.00000000E+00
  0.00000000E+00  0.00000000E+00  0.00000000E+00
  0.00000000E+00  0.00000000E+00  0.00000000E+00
  0.00000000E+00  0.00000000E+00  0.00000000E+00
  0.00000000E+00  0.00000000E+00  0.00000000E+00
  0.00000000E+00  0.00000000E+00  0.00000000E+00
  0.00000000E+00  0.00000000E+00  0.00000000E+00
  0.00000000E+00  0.00000000E+00  0.00000000E+00
  0.00000000E+00  0.00000000E+00  0.00000000E+00
  0.00000000E+00  0.00000000E+00  0.00000000E+00
  0.00000000E+00  0.00000000E+00  0.00000000E+00
  0.00000000E+00  0.00000000E+00  0.00000000E+00
  0.00000000E+00  0.00000000E+00  0.00000000E+00
  0.00000000E+00  0.00000000E+00  0.00000000E+00
  0.00000000E+00  0.00000000E+00  0.00000000E+00
  0.00000000E+00  0.00000000E+00  0.00000000E+00
