Pt  C  H                                
   1.00000000000000     
     5.6144278429999996    0.0000000000000000    0.0000000000000000
     2.8072139209999998    4.8622371390000003    0.0000000000000000
     0.0000000000000000    0.0000000000000000   21.8762417099999986
   Pt   C    H 
    16     1     1
Direct
  0.0001908399665256  0.0001921271899867  0.3435093709360019
  0.5000989871055193  0.5001063287671519  0.3427518372640576
  0.4994189431228458  0.0001668277745127  0.3434973224728792
  0.0000875997211162  0.4994556267384218  0.3434981627866335
  0.6667197750745699  0.6666805504414247  0.4477736231859767
  0.1667029676389508  0.1666506977423358  0.4487577221189705
  0.1666045486805578  0.6666821082979328  0.4477491881945661
  0.6667271638732412  0.1665567859556524  0.4477524987270711
  0.3326832443697251  0.3326187662238161  0.5512504888574111
  0.8332349835964473  0.8331409028262839  0.5530444164037722
  0.8349219380651804  0.3325951856108560  0.5512854361723266
  0.3327099384593598  0.8348263803199509  0.5512831258898329
  0.9962717521588383  0.9961365295397195  0.6604212866919343
  0.4999493240058129  0.4998885083603266  0.6527153184871065
  0.5079515337919105  0.9962334137321677  0.6604719294485132
  0.9963564497090656  0.5077885993585759  0.6604653259286188
  0.1667517946168036  0.1666073115214139  0.7112816623010998
  0.1667028454385455  0.1665000117994764  0.7615465419332196
 
  0.00000000E+00  0.00000000E+00  0.00000000E+00
  0.00000000E+00  0.00000000E+00  0.00000000E+00
  0.00000000E+00  0.00000000E+00  0.00000000E+00
  0.00000000E+00  0.00000000E+00  0.00000000E+00
  0.00000000E+00  0.00000000E+00  0.00000000E+00
  0.00000000E+00  0.00000000E+00  0.00000000E+00
  0.00000000E+00  0.00000000E+00  0.00000000E+00
  0.00000000E+00  0.00000000E+00  0.00000000E+00
  0.00000000E+00  0.00000000E+00  0.00000000E+00
  0.00000000E+00  0.00000000E+00  0.00000000E+00
  0.00000000E+00  0.00000000E+00  0.00000000E+00
  0.00000000E+00  0.00000000E+00  0.00000000E+00
  0.00000000E+00  0.00000000E+00  0.00000000E+00
  0.00000000E+00  0.00000000E+00  0.00000000E+00
  0.00000000E+00  0.00000000E+00  0.00000000E+00
  0.00000000E+00  0.00000000E+00  0.00000000E+00
  0.00000000E+00  0.00000000E+00  0.00000000E+00
  0.00000000E+00  0.00000000E+00  0.00000000E+00
