Pt  C  O  H                             
   1.00000000000000     
     5.6144278426211880    0.0000000000000000    0.0000000000000000
     0.0000000000000000    5.6144278426211880    0.0000000000000000
     0.0000000000000000    0.0000000000000000   20.9549999999999983
   Pt   C    O    H 
    16     1     1     1
Selective dynamics
Direct
  0.2500000000000000  0.2500000000000000  0.3579098067287063   F   F   F
  0.7500000000000000  0.2500000000000000  0.3579098067287063   F   F   F
  0.2500000000000000  0.7500000000000000  0.3579098067287063   F   F   F
  0.7500000000000000  0.7500000000000000  0.3579098067287063   F   F   F
  0.0000000000000000  0.0000000000000000  0.4526366022429045   F   F   F
  0.5000000000000000  0.0000000000000000  0.4526366022429045   F   F   F
  0.0000000000000000  0.5000000000000000  0.4526366022429045   F   F   F
  0.5000000000000000  0.5000000000000000  0.4526366022429045   F   F   F
  0.2509566272335718  0.2498852779611549  0.5419561425610311   T   T   T
  0.7508951657076470  0.2500071458359601  0.5452885573390113   T   T   T
  0.2515822173192241  0.7499576112170618  0.5451823033151779   T   T   T
  0.7513119918762848  0.7498948695711426  0.5506655409844121   T   T   T
  0.0070537124217331  0.0049278492885553  0.6401028414519111   T   T   T
  0.4971187493883229  0.0049433286656694  0.6404787055256133   T   T   T
  0.0068967060908263  0.4949233820633100  0.6401090997405452   T   T   T
  0.4971869567771170  0.4950425989181267  0.6404829730905439   T   T   T
  0.2534099068319203  0.2501357513399920  0.6855358089227735   T   T   T
  0.2599514771736483  0.2500133126706953  0.7504735335546052   T   T   T
  0.0967343568512515  0.2498697046803071  0.7672380409472953   T   T   T
 
  0.00000000E+00  0.00000000E+00  0.00000000E+00
  0.00000000E+00  0.00000000E+00  0.00000000E+00
  0.00000000E+00  0.00000000E+00  0.00000000E+00
  0.00000000E+00  0.00000000E+00  0.00000000E+00
  0.00000000E+00  0.00000000E+00  0.00000000E+00
  0.00000000E+00  0.00000000E+00  0.00000000E+00
  0.00000000E+00  0.00000000E+00  0.00000000E+00
  0.00000000E+00  0.00000000E+00  0.00000000E+00
  0.00000000E+00  0.00000000E+00  0.00000000E+00
  0.00000000E+00  0.00000000E+00  0.00000000E+00
  0.00000000E+00  0.00000000E+00  0.00000000E+00
  0.00000000E+00  0.00000000E+00  0.00000000E+00
  0.00000000E+00  0.00000000E+00  0.00000000E+00
  0.00000000E+00  0.00000000E+00  0.00000000E+00
  0.00000000E+00  0.00000000E+00  0.00000000E+00
  0.00000000E+00  0.00000000E+00  0.00000000E+00
  0.00000000E+00  0.00000000E+00  0.00000000E+00
  0.00000000E+00  0.00000000E+00  0.00000000E+00
  0.00000000E+00  0.00000000E+00  0.00000000E+00
