Pt  C  H                                
   1.00000000000000     
     5.6144278426211880    0.0000000000000000    0.0000000000000000
     0.0000000000000000    5.6144278426211880    0.0000000000000000
     0.0000000000000000    0.0000000000000000   20.9549999999999983
   Pt   C    H 
    16     1     1
Selective dynamics
Direct
  0.2500000000000000  0.2500000000000000  0.3579098067287063   F   F   F
  0.7500000000000000  0.2500000000000000  0.3579098067287063   F   F   F
  0.2500000000000000  0.7500000000000000  0.3579098067287063   F   F   F
  0.7500000000000000  0.7500000000000000  0.3579098067287063   F   F   F
  0.0000000000000000  0.0000000000000000  0.4526366022429045   F   F   F
  0.5000000000000000  0.0000000000000000  0.4526366022429045   F   F   F
  0.0000000000000000  0.5000000000000000  0.4526366022429045   F   F   F
  0.5000000000000000  0.5000000000000000  0.4526366022429045   F   F   F
  0.2499315230204446  0.2523700508074931  0.5449895974556568   T   T   T
  0.7500155256460309  0.2547323869469555  0.5464981432364566   T   T   T
  0.2498846774453065  0.7478177472229330  0.5449577278093567   T   T   T
  0.7499866934409165  0.7455265206258939  0.5464108262498442   T   T   T
  0.0011038494820058  0.0002589811109621  0.6354014848497920   T   T   T
  0.4990336965545657  0.0001088653093972  0.6353400296620876   T   T   T
 -0.0094882995702242  0.5002206547487453  0.6438331269009775   T   T   T
  0.5090423112475002  0.5001375435152079  0.6438690241978873   T   T   T
  0.2496525376835115  0.5056861825802664  0.7019145177607700   T   T   T
  0.2491341262184534  0.5107824339061637  0.7544419578667837   T   T   T
 
  0.00000000E+00  0.00000000E+00  0.00000000E+00
  0.00000000E+00  0.00000000E+00  0.00000000E+00
  0.00000000E+00  0.00000000E+00  0.00000000E+00
  0.00000000E+00  0.00000000E+00  0.00000000E+00
  0.00000000E+00  0.00000000E+00  0.00000000E+00
  0.00000000E+00  0.00000000E+00  0.00000000E+00
  0.00000000E+00  0.00000000E+00  0.00000000E+00
  0.00000000E+00  0.00000000E+00  0.00000000E+00
  0.00000000E+00  0.00000000E+00  0.00000000E+00
  0.00000000E+00  0.00000000E+00  0.00000000E+00
  0.00000000E+00  0.00000000E+00  0.00000000E+00
  0.00000000E+00  0.00000000E+00  0.00000000E+00
  0.00000000E+00  0.00000000E+00  0.00000000E+00
  0.00000000E+00  0.00000000E+00  0.00000000E+00
  0.00000000E+00  0.00000000E+00  0.00000000E+00
  0.00000000E+00  0.00000000E+00  0.00000000E+00
  0.00000000E+00  0.00000000E+00  0.00000000E+00
  0.00000000E+00  0.00000000E+00  0.00000000E+00
